p edge 320 2500
c 12165
e 0 23 1 0
e 0 277 1 1
e 0 160 1 3
e 0 91 1 4
e 0 168 1 5
e 0 161 35 6
e 0 79 1 10
e 0 209 1 12
e 0 269 23 15
e 1 37 1 18
e 1 306 45 20
e 1 116 1 21
e 1 108 1 22
e 1 13 37 23
e 1 114 1 24
e 1 172 2 29
e 2 284 33 32
e 2 51 1 33
e 2 165 37 34
e 2 19 13 35
e 2 318 1 38
e 2 77 2 39
e 2 92 1 41
e 2 173 1 42
e 2 185 1 44
e 2 186 29 45
e 2 280 38 46
e 3 37 1 49
e 3 92 1 58
e 3 108 1 59
e 3 116 1 60
e 4 273 1 67
e 4 98 1 68
e 4 302 16 69
e 4 143 1 70
e 4 233 1 71
e 4 257 1 72
e 4 298 1 73
e 4 215 1 74
e 4 71 1 76
e 4 73 1 77
e 4 100 4 78
e 4 202 1 79
e 5 10 30 80
e 5 162 1 81
e 5 196 1 82
e 5 42 2 83
e 5 77 1 84
e 5 13 3 88
e 5 43 31 89
e 5 99 46 92
e 5 128 35 93
e 6 189 1 94
e 6 72 1 95
e 6 62 2 96
e 6 102 1 102
e 6 207 1 103
e 7 9 25 107
e 7 293 19 108
e 7 131 37 109
e 7 41 6 110
e 7 255 36 111
e 7 63 35 112
e 7 23 4 113
e 7 19 21 114
e 7 37 6 115
e 7 42 31 116
e 7 109 36 118
e 7 146 22 120
e 7 162 42 121
e 7 192 37 122
e 8 184 48 125
e 8 65 20 126
e 8 110 1 127
e 8 96 2 128
e 8 270 1 129
e 8 204 16 131
e 8 64 1 132
e 8 124 1 133
e 8 161 29 136
e 8 180 1 137
e 8 291 1 140
e 9 68 1 141
e 9 197 1 142
e 9 198 2 143
e 9 175 2 149
e 9 307 1 153
e 10 250 19 156
e 10 65 28 157
e 10 234 11 158
e 10 279 38 159
e 10 309 31 160
e 10 308 46 161
e 10 74 17 163
e 10 130 26 164
e 10 147 6 165
e 10 211 22 167
e 10 243 3 169
e 11 269 44 170
e 11 15 2 171
e 11 226 1 172
e 11 84 1 174
e 11 175 1 175
e 11 57 2 179
e 11 91 1 182
e 11 167 1 183
e 11 230 1 184
e 11 233 1 185
e 12 80 1 189
e 12 258 1 190
e 12 96 2 191
e 12 146 1 192
e 12 116 1 193
e 12 318 2 194
e 12 50 1 196
e 12 13 42 197
e 12 27 2 198
e 12 32 1 199
e 12 164 1 200
e 12 298 1 201
e 13 263 35 202
e 13 113 20 203
e 13 97 6 205
e 13 158 39 206
e 13 296 23 207
e 13 50 46 208
e 13 55 5 209
e 13 243 24 210
e 13 260 41 211
e 13 265 36 212
e 14 55 1 216
e 14 226 2 218
e 14 74 35 219
e 14 307 2 220
e 14 29 1 221
e 14 203 1 225
e 14 240 1 226
e 14 286 1 227
e 15 257 1 230
e 15 265 2 231
e 15 134 1 232
e 15 250 2 233
e 15 45 1 234
e 15 264 1 235
e 15 180 2 236
e 15 305 2 237
e 15 27 2 238
e 15 114 2 239
e 15 136 1 240
e 15 192 1 242
e 15 258 2 243
e 15 310 2 244
e 16 241 3 248
e 16 284 9 249
e 16 299 39 250
e 16 197 1 252
e 16 40 47 254
e 16 266 1 257
e 16 270 1 258
e 17 199 1 261
e 17 241 29 262
e 17 226 1 264
e 17 99 18 266
e 18 73 1 270
e 18 65 14 271
e 18 92 1 273
e 18 315 1 274
e 18 268 1 275
e 18 218 1 276
e 18 270 1 277
e 18 30 1 278
e 18 64 1 279
e 18 107 1 280
e 18 123 2 281
e 18 174 1 282
e 18 185 1 283
e 18 205 1 284
e 18 213 1 285
e 18 275 1 287
e 18 316 1 288
e 19 207 26 289
e 19 201 9 290
e 19 124 18 291
e 19 164 19 292
e 19 26 22 293
e 19 81 26 294
e 19 299 18 295
e 19 23 32 296
e 19 34 14 297
e 19 44 19 298
e 19 180 3 299
e 19 213 27 300
e 19 242 39 301
e 19 257 3 302
e 19 265 9 304
e 19 300 36 305
e 19 308 7 306
e 19 310 5 307
e 20 126 5 308
e 20 238 1 309
e 20 149 6 310
e 20 191 27 314
e 20 82 1 315
e 20 197 1 317
e 20 226 1 318
e 20 297 17 319
e 21 214 1 321
e 21 76 1 322
e 21 313 1 323
e 21 50 1 324
e 21 164 1 325
e 21 212 1 326
e 21 191 9 328
e 21 45 1 329
e 21 54 1 330
e 21 58 1 331
e 21 91 1 332
e 21 130 1 333
e 21 136 1 334
e 21 156 1 335
e 21 228 1 336
e 21 308 1 337
e 22 68 2 338
e 22 297 10 341
e 22 269 2 342
e 22 300 1 343
e 22 298 1 344
e 22 191 20 345
e 23 198 1 352
e 23 82 1 353
e 23 260 1 354
e 23 46 1 355
e 23 38 1 356
e 23 27 2 357
e 23 48 1 358
e 23 107 1 360
e 23 126 39 361
e 23 178 26 362
e 23 192 1 363
e 23 221 1 364
e 23 267 1 365
e 23 314 1 366
e 24 51 2 367
e 24 242 1 368
e 24 175 1 371
e 24 69 1 372
e 24 84 1 373
e 24 114 1 376
e 24 286 1 377
e 25 318 2 378
e 25 233 40 381
e 25 165 6 383
e 25 38 2 384
e 26 180 1 392
e 26 38 1 395
e 26 249 36 396
e 26 197 1 398
e 26 273 1 399
e 26 103 1 400
e 27 91 2 409
e 27 254 2 411
e 27 37 2 414
e 27 113 28 416
e 27 201 1 418
e 27 250 1 419
e 27 274 1 420
e 28 246 1 423
e 28 160 1 424
e 28 128 22 425
e 28 207 1 426
e 28 65 7 427
e 28 172 1 428
e 28 41 1 430
e 28 44 1 431
e 28 51 1 432
e 28 156 1 433
e 28 219 1 434
e 28 280 42 435
e 29 217 1 436
e 29 36 1 437
e 29 111 1 438
e 29 123 1 439
e 29 97 1 440
e 29 30 1 441
e 29 75 1 442
e 29 44 1 443
e 29 83 2 445
e 29 121 2 446
e 29 237 2 447
e 29 313 2 448
e 30 110 1 449
e 30 124 1 451
e 30 207 1 454
e 30 55 1 456
e 30 211 1 460
e 30 307 1 461
e 30 318 2 462
e 31 126 47 464
e 31 137 1 465
e 31 291 1 469
e 31 91 1 471
e 31 129 1 472
e 31 264 1 474
e 31 280 43 475
e 32 197 1 477
e 32 179 1 478
e 32 257 1 479
e 32 294 2 480
e 32 301 1 481
e 32 210 1 482
e 32 56 1 483
e 32 38 2 484
e 32 83 1 486
e 32 96 1 487
e 32 97 1 488
e 32 133 1 489
e 32 145 2 490
e 32 199 1 491
e 32 236 1 492
e 32 245 47 493
e 32 267 1 494
e 33 298 1 495
e 33 121 1 496
e 33 299 21 497
e 33 218 1 501
e 33 46 1 502
e 33 82 1 505
e 33 95 1 506
e 33 180 2 509
e 34 207 1 512
e 34 269 1 513
e 34 91 1 514
e 34 204 42 522
e 35 237 1 524
e 35 90 1 525
e 35 107 1 526
e 35 264 2 527
e 35 293 2 528
e 35 129 1 529
e 35 69 1 530
e 35 210 1 531
e 35 97 2 533
e 35 263 2 534
e 35 278 2 535
e 35 315 1 536
e 36 263 1 537
e 36 316 1 539
e 36 125 1 540
e 36 185 1 541
e 36 177 1 542
e 36 208 1 543
e 36 269 37 544
e 36 93 2 545
e 36 206 2 546
e 36 317 1 547
e 37 162 1 548
e 37 176 1 549
e 37 177 1 550
e 37 50 1 551
e 37 302 11 552
e 37 252 1 553
e 37 59 1 554
e 37 63 1 555
e 37 118 1 556
e 37 125 2 557
e 37 135 1 558
e 37 137 1 559
e 37 145 2 560
e 37 191 47 562
e 37 197 1 563
e 37 211 1 564
e 37 272 1 565
e 38 85 3 566
e 38 58 1 567
e 38 70 1 569
e 38 173 2 570
e 38 268 1 571
e 38 41 2 572
e 38 50 1 573
e 38 93 1 575
e 38 166 2 576
e 38 193 2 577
e 38 210 2 578
e 38 242 1 579
e 38 296 1 580
e 39 266 1 581
e 39 284 34 586
e 39 95 1 588
e 40 289 1 590
e 40 149 26 591
e 40 199 16 592
e 40 45 43 593
e 40 80 39 595
e 40 100 49 596
e 40 113 33 597
e 40 200 19 598
e 41 225 1 601
e 41 307 1 603
e 41 263 1 604
e 41 234 18 606
e 41 209 1 607
e 41 63 1 608
e 41 178 5 609
e 41 192 1 610
e 42 201 42 614
e 42 121 43 615
e 42 59 5 616
e 42 217 34 617
e 42 63 48 618
e 42 297 6 619
e 42 193 8 620
e 42 269 26 623
e 43 63 26 624
e 43 178 23 625
e 43 223 10 626
e 43 285 22 627
e 43 127 27 628
e 43 247 33 629
e 43 128 17 630
e 43 154 27 631
e 43 215 30 632
e 44 266 1 636
e 44 197 1 637
e 44 62 1 638
e 44 250 2 640
e 45 112 1 644
e 45 196 1 645
e 45 208 1 647
e 45 52 1 649
e 45 207 1 651
e 45 231 41 652
e 45 306 28 653
e 46 76 1 654
e 46 53 1 655
e 46 242 1 657
e 46 202 1 658
e 46 63 1 659
e 46 148 1 660
e 46 57 1 661
e 46 77 2 662
e 46 110 1 663
e 46 222 1 664
e 46 237 2 665
e 46 252 2 666
e 46 262 13 667
e 46 276 2 668
e 47 92 1 669
e 47 220 1 671
e 47 201 1 672
e 47 309 1 673
e 48 165 42 675
e 48 211 1 676
e 48 194 10 685
e 48 207 1 686
e 48 286 1 691
e 49 292 1 695
e 49 68 1 700
e 49 145 2 702
e 49 196 1 703
e 49 211 1 704
e 49 298 2 706
e 50 270 1 709
e 50 218 1 710
e 50 172 2 712
e 50 176 1 713
e 50 178 6 714
e 50 220 1 716
e 50 264 2 717
e 50 267 1 718
e 50 297 35 720
e 51 300 1 722
e 51 77 2 723
e 51 277 2 724
e 51 238 2 725
e 51 60 2 726
e 51 119 1 727
e 51 137 1 728
e 51 176 2 729
e 51 183 1 730
e 51 206 2 731
e 51 225 1 732
e 51 242 1 733
e 52 139 1 734
e 52 81 1 735
e 52 66 1 736
e 52 233 13 738
e 52 101 1 739
e 52 104 1 740
e 52 116 1 741
e 52 159 1 742
e 52 167 1 743
e 52 171 1 744
e 52 307 1 745
e 53 230 1 747
e 53 121 1 748
e 53 176 1 751
e 53 55 1 752
e 53 102 2 755
e 53 252 3 758
e 54 69 1 759
e 54 108 1 760
e 54 294 1 761
e 54 201 1 765
e 54 106 12 767
e 54 149 49 769
e 54 298 1 771
e 54 318 1 773
e 55 70 1 774
e 55 113 33 775
e 55 314 1 776
e 55 255 1 777
e 55 137 1 779
e 55 82 1 780
e 55 159 1 781
e 55 161 10 782
e 55 198 1 783
e 55 241 10 784
e 55 249 8 785
e 55 275 1 786
e 55 276 1 787
e 55 291 1 788
e 56 178 47 790
e 56 314 1 791
e 56 254 1 792
e 56 226 2 793
e 56 82 1 794
e 56 136 1 795
e 56 120 1 796
e 56 57 1 797
e 56 68 2 798
e 56 73 1 799
e 56 89 1 800
e 56 144 1 801
e 56 196 1 802
e 56 269 24 803
e 56 294 2 804
e 56 313 1 805
e 57 237 1 806
e 57 183 1 807
e 57 104 1 808
e 57 137 2 809
e 57 207 1 810
e 57 75 1 811
e 57 98 1 812
e 57 123 1 813
e 57 132 2 814
e 57 298 1 815
e 58 185 1 818
e 58 64 1 819
e 58 292 2 820
e 58 167 2 821
e 58 72 2 823
e 58 198 1 826
e 58 240 2 827
e 58 242 1 828
e 59 173 1 831
e 59 72 3 832
e 59 213 1 834
e 59 318 2 835
e 59 87 1 837
e 59 129 1 839
e 59 194 4 842
e 60 177 2 848
e 60 315 2 850
e 60 306 4 851
e 60 62 1 853
e 60 79 1 854
e 60 201 1 857
e 60 240 3 858
e 61 223 1 862
e 61 121 1 863
e 61 297 5 864
e 61 188 1 865
e 61 313 1 866
e 61 76 1 867
e 61 118 1 869
e 61 97 1 870
e 61 234 11 872
e 62 169 1 873
e 62 85 1 874
e 62 150 1 875
e 62 305 1 876
e 62 64 1 878
e 62 143 1 879
e 62 158 2 880
e 62 220 1 881
e 62 246 2 882
e 62 286 1 883
e 63 97 2 884
e 63 217 1 885
e 63 300 1 887
e 63 188 1 888
e 63 166 1 889
e 63 101 1 890
e 63 175 1 891
e 64 111 1 892
e 64 256 1 893
e 64 81 1 895
e 64 302 27 897
e 64 108 1 898
e 64 119 1 899
e 64 140 1 900
e 64 179 1 901
e 64 192 1 902
e 64 216 1 903
e 64 283 1 904
e 64 287 1 905
e 65 66 17 906
e 65 268 37 907
e 65 132 9 908
e 65 170 3 909
e 65 216 33 910
e 65 239 39 911
e 65 215 37 912
e 65 92 16 913
e 65 128 44 914
e 65 165 15 916
e 65 245 48 917
e 65 247 45 918
e 65 256 3 919
e 65 263 7 920
e 66 121 1 922
e 66 249 36 924
e 66 213 1 925
e 66 197 1 931
e 67 304 1 934
e 67 250 1 935
e 67 121 1 936
e 67 178 10 939
e 67 126 7 940
e 68 72 2 946
e 68 240 1 947
e 68 138 1 948
e 68 312 1 949
e 68 305 2 950
e 68 315 1 951
e 68 286 1 952
e 68 86 1 953
e 68 154 3 954
e 68 173 2 955
e 68 214 2 957
e 68 226 2 958
e 69 311 1 959
e 69 142 1 960
e 69 242 1 961
e 69 209 1 962
e 69 257 1 964
e 69 141 1 965
e 69 181 1 966
e 69 131 1 967
e 69 149 5 968
e 69 212 1 969
e 69 254 1 970
e 69 262 48 971
e 69 268 1 972
e 69 290 1 973
e 70 256 1 975
e 70 286 1 979
e 70 201 1 984
e 70 240 3 987
e 70 292 1 989
e 71 100 3 990
e 71 116 1 991
e 71 297 16 992
e 71 174 1 994
e 71 165 8 999
e 71 196 1 1000
e 71 284 39 1002
e 72 132 1 1005
e 72 142 2 1006
e 72 196 2 1007
e 72 317 1 1008
e 72 259 2 1009
e 72 158 1 1010
e 72 188 2 1011
e 72 203 2 1012
e 72 214 1 1013
e 72 279 1 1015
e 73 196 1 1016
e 73 149 45 1017
e 73 178 34 1022
e 73 197 1 1023
e 73 292 1 1025
e 74 217 15 1027
e 74 159 24 1029
e 74 224 1 1030
e 74 233 33 1031
e 74 302 41 1032
e 74 195 10 1033
e 74 137 25 1035
e 74 157 27 1036
e 74 227 17 1037
e 75 294 1 1040
e 75 92 1 1042
e 75 214 1 1044
e 75 175 1 1046
e 75 195 29 1048
e 75 258 2 1049
e 76 280 23 1054
e 76 189 1 1055
e 76 213 1 1056
e 76 128 17 1059
e 76 269 1 1060
e 76 300 1 1061
e 77 112 1 1062
e 77 291 1 1063
e 77 255 2 1064
e 77 147 2 1065
e 77 156 2 1066
e 77 177 1 1067
e 77 109 1 1068
e 77 111 1 1069
e 77 129 1 1070
e 77 135 1 1071
e 77 145 2 1072
e 77 148 2 1073
e 77 190 1 1074
e 77 253 1 1075
e 78 258 1 1076
e 78 103 1 1077
e 78 300 1 1078
e 78 124 1 1081
e 78 102 1 1082
e 78 112 1 1083
e 78 161 9 1085
e 78 170 1 1086
e 78 176 1 1087
e 78 177 1 1088
e 78 184 39 1089
e 78 256 1 1091
e 78 282 1 1093
e 78 317 1 1094
e 79 307 1 1095
e 79 159 1 1096
e 79 220 1 1097
e 79 271 3 1098
e 79 162 1 1099
e 79 118 1 1100
e 79 85 2 1101
e 79 129 1 1102
e 79 157 1 1103
e 79 239 1 1105
e 80 113 46 1107
e 80 180 1 1109
e 80 103 1 1111
e 80 94 1 1113
e 81 250 1 1117
e 81 128 18 1119
e 81 100 33 1125
e 81 174 1 1127
e 81 264 2 1129
e 82 172 1 1131
e 82 100 37 1132
e 82 118 1 1133
e 82 167 1 1134
e 82 163 1 1135
e 82 274 1 1136
e 82 87 1 1137
e 82 98 1 1138
e 82 113 36 1139
e 82 141 1 1140
e 82 237 1 1142
e 83 264 1 1143
e 83 179 1 1148
e 83 315 1 1150
e 84 149 45 1151
e 84 188 1 1152
e 84 104 1 1153
e 84 184 35 1154
e 84 226 2 1155
e 84 278 2 1156
e 84 131 1 1157
e 84 89 1 1159
e 84 100 8 1160
e 84 159 2 1161
e 84 210 1 1162
e 84 293 1 1163
e 85 218 1 1165
e 85 94 1 1168
e 85 124 1 1171
e 85 145 1 1172
e 85 180 1 1173
e 85 214 1 1174
e 85 223 1 1175
e 86 185 1 1176
e 86 194 18 1178
e 86 220 1 1182
e 87 250 1 1183
e 87 280 45 1184
e 87 202 1 1185
e 87 105 1 1187
e 87 99 6 1188
e 87 145 2 1189
e 87 156 1 1190
e 87 167 2 1191
e 87 281 1 1192
e 87 296 1 1193
e 88 298 2 1194
e 88 121 1 1197
e 88 240 2 1198
e 88 106 33 1199
e 88 170 1 1201
e 88 179 1 1202
e 89 297 5 1204
e 89 203 2 1211
e 89 209 1 1212
e 89 254 2 1214
e 90 136 1 1217
e 90 157 1 1218
e 90 281 1 1219
e 90 221 1 1220
e 90 270 1 1221
e 90 198 1 1222
e 90 234 14 1223
e 90 142 1 1225
e 90 149 18 1226
e 90 170 1 1227
e 91 217 1 1228
e 91 142 2 1229
e 91 295 1 1230
e 91 317 1 1231
e 91 109 1 1232
e 91 247 2 1233
e 91 291 2 1234
e 92 281 1 1236
e 92 156 1 1237
e 92 118 1 1239
e 92 244 1 1240
e 92 303 1 1241
e 92 306 41 1242
e 93 173 1 1243
e 93 108 1 1248
e 93 176 1 1250
e 93 256 1 1253
e 94 271 1 1254
e 94 168 1 1255
e 94 313 1 1258
e 94 174 1 1259
e 94 235 1 1260
e 94 102 1 1261
e 94 187 1 1262
e 94 191 8 1263
e 94 273 1 1264
e 94 276 1 1265
e 95 97 1 1266
e 95 260 1 1267
e 95 112 1 1268
e 95 163 1 1269
e 95 312 1 1270
e 95 105 2 1271
e 95 188 1 1272
e 95 229 2 1273
e 96 208 1 1274
e 96 251 2 1277
e 96 264 1 1278
e 96 269 47 1279
e 96 164 1 1280
e 96 221 1 1281
e 97 208 2 1282
e 97 201 3 1285
e 97 172 2 1287
e 97 196 1 1288
e 97 250 1 1289
e 97 256 1 1290
e 97 300 1 1292
e 98 223 1 1293
e 98 294 1 1294
e 98 234 22 1295
e 98 284 8 1301
e 98 292 1 1303
e 98 314 1 1305
e 98 319 1 1306
e 99 286 35 1308
e 99 183 1 1309
e 99 208 11 1310
e 99 227 43 1311
e 99 217 45 1312
e 99 207 10 1313
e 100 202 12 1315
e 100 297 45 1316
e 100 230 27 1317
e 100 113 27 1319
e 100 149 5 1321
e 100 168 17 1322
e 100 263 9 1323
e 101 256 1 1324
e 101 223 1 1326
e 101 161 7 1331
e 101 280 10 1333
e 101 291 1 1334
e 102 298 3 1336
e 102 182 2 1337
e 102 127 1 1338
e 102 221 3 1339
e 102 229 1 1340
e 102 271 2 1341
e 103 107 1 1342
e 103 295 1 1343
e 103 244 2 1344
e 103 190 1 1345
e 103 138 2 1347
e 103 147 1 1348
e 103 151 1 1349
e 103 160 1 1350
e 104 223 1 1352
e 104 112 1 1353
e 104 209 1 1354
e 104 146 1 1355
e 104 167 1 1357
e 104 270 1 1359
e 105 274 1 1362
e 105 196 1 1366
e 105 218 1 1368
e 105 286 1 1372
e 105 307 1 1374
e 105 314 1 1375
e 106 169 12 1377
e 106 162 39 1378
e 106 197 8 1379
e 106 204 7 1380
e 106 174 22 1381
e 106 156 2 1382
e 106 163 13 1383
e 106 200 44 1384
e 106 247 32 1386
e 106 303 10 1387
e 107 242 1 1389
e 107 110 1 1391
e 107 112 1 1392
e 107 300 1 1397
e 108 263 1 1398
e 108 136 1 1399
e 108 145 2 1400
e 108 168 1 1401
e 108 160 1 1402
e 108 231 45 1403
e 109 199 1 1406
e 109 302 12 1409
e 109 213 1 1411
e 109 220 1 1412
e 109 249 49 1414
e 110 183 1 1415
e 110 143 1 1416
e 110 127 1 1417
e 110 169 2 1418
e 110 182 2 1419
e 110 209 1 1420
e 110 141 1 1421
e 110 147 2 1422
e 110 221 1 1423
e 110 255 1 1424
e 110 272 3 1425
e 111 228 1 1426
e 111 165 17 1428
e 111 178 27 1431
e 111 234 27 1432
e 112 262 21 1434
e 112 252 2 1435
e 112 229 1 1436
e 112 285 1 1437
e 112 278 1 1438
e 112 153 1 1439
e 112 188 1 1440
e 112 116 1 1441
e 112 118 1 1442
e 112 174 1 1444
e 112 178 13 1445
e 112 199 1 1446
e 112 249 21 1447
e 112 301 1 1448
e 113 210 44 1449
e 113 309 8 1451
e 113 257 16 1452
e 113 126 6 1453
e 113 234 29 1455
e 113 248 8 1456
e 113 269 45 1457
e 114 207 1 1458
e 114 162 1 1459
e 114 317 1 1460
e 114 146 1 1461
e 114 259 1 1462
e 114 175 1 1463
e 114 200 42 1464
e 114 215 1 1465
e 114 255 1 1467
e 114 302 27 1468
e 115 226 2 1474
e 115 230 1 1475
e 116 175 2 1477
e 116 229 1 1478
e 116 151 1 1479
e 116 208 1 1480
e 116 200 18 1481
e 116 136 1 1482
e 116 149 40 1483
e 116 218 1 1485
e 116 252 1 1486
e 116 287 1 1487
e 116 305 1 1488
e 116 307 1 1489
e 117 317 2 1491
e 117 274 2 1493
e 117 170 1 1494
e 117 162 2 1499
e 117 258 1 1500
e 117 284 29 1501
e 118 274 1 1504
e 118 252 1 1505
e 118 199 1 1506
e 118 124 1 1508
e 118 137 1 1509
e 119 226 1 1514
e 119 298 1 1518
e 120 307 1 1520
e 120 286 1 1527
e 121 272 1 1529
e 121 262 36 1530
e 121 285 1 1532
e 121 191 15 1533
e 121 219 1 1534
e 121 205 1 1535
e 121 212 1 1536
e 122 146 1 1538
e 122 280 26 1540
e 122 204 37 1542
e 122 274 1 1545
e 122 300 1 1547
e 123 314 1 1548
e 123 277 1 1549
e 123 250 1 1551
e 123 267 1 1552
e 123 165 41 1553
e 123 174 1 1554
e 123 218 1 1555
e 123 304 1 1557
e 124 276 1 1558
e 124 220 1 1559
e 124 267 1 1560
e 124 247 1 1561
e 124 244 3 1562
e 125 179 2 1564
e 125 184 8 1565
e 125 176 1 1566
e 125 170 1 1570
e 126 303 25 1573
e 126 233 31 1574
e 126 236 22 1576
e 126 221 46 1578
e 126 138 42 1579
e 126 155 24 1580
e 126 183 23 1581
e 127 172 1 1582
e 127 304 1 1583
e 127 307 1 1584
e 127 201 1 1585
e 127 238 1 1587
e 127 200 6 1590
e 127 294 1 1592
e 128 272 47 1594
e 128 289 2 1595
e 128 131 16 1596
e 128 236 7 1598
e 128 257 14 1600
e 128 311 8 1602
e 129 263 1 1603
e 129 259 1 1604
e 129 219 1 1605
e 129 172 1 1606
e 129 189 1 1607
e 129 207 1 1608
e 129 281 1 1609
e 130 240 1 1614
e 130 225 2 1615
e 130 250 1 1617
e 130 252 2 1618
e 131 192 1 1621
e 131 207 1 1622
e 131 195 47 1623
e 131 208 1 1625
e 132 189 1 1628
e 132 203 2 1632
e 132 167 2 1635
e 132 180 1 1636
e 132 282 1 1638
e 132 309 1 1639
e 133 247 1 1640
e 133 287 1 1641
e 133 167 1 1642
e 133 134 1 1643
e 133 204 45 1644
e 133 168 1 1645
e 133 183 1 1646
e 133 209 1 1647
e 133 315 1 1648
e 134 258 1 1649
e 134 179 1 1650
e 134 252 2 1652
e 134 241 34 1653
e 134 245 8 1655
e 134 175 1 1657
e 134 185 1 1658
e 135 160 1 1664
e 135 315 1 1665
e 136 209 1 1666
e 136 196 1 1668
e 136 207 1 1670
e 137 175 2 1675
e 137 310 1 1676
e 137 212 1 1677
e 137 162 1 1679
e 137 164 1 1680
e 137 232 2 1681
e 137 297 24 1682
e 138 300 1 1683
e 138 160 3 1687
e 138 170 1 1688
e 139 304 1 1695
e 139 199 1 1697
e 139 267 1 1698
e 140 195 15 1702
e 140 208 1 1703
e 140 282 1 1705
e 141 177 1 1706
e 141 195 5 1707
e 141 186 20 1708
e 141 250 1 1709
e 141 225 1 1710
e 142 266 1 1713
e 142 173 2 1715
e 142 204 20 1717
e 142 224 1 1718
e 142 252 1 1719
e 143 224 1 1720
e 143 172 1 1722
e 143 274 1 1725
e 143 299 6 1727
e 143 302 2 1728
e 144 318 1 1730
e 144 172 2 1733
e 144 298 2 1734
e 144 178 30 1735
e 144 218 2 1736
e 145 192 3 1739
e 145 167 2 1740
e 145 219 2 1741
e 145 268 2 1742
e 145 303 2 1743
e 146 225 1 1744
e 146 150 1 1745
e 146 298 1 1746
e 146 258 1 1748
e 146 227 1 1749
e 146 203 1 1750
e 146 207 1 1751
e 146 250 1 1752
e 146 267 1 1753
e 146 288 1 1754
e 147 241 43 1756
e 148 294 1 1765
e 148 309 1 1766
e 149 316 45 1767
e 149 186 12 1768
e 149 289 39 1769
e 150 315 1 1772
e 150 284 16 1775
e 151 168 1 1782
e 151 238 1 1785
e 152 207 1 1787
e 152 269 16 1788
e 152 282 2 1789
e 152 185 1 1790
e 152 230 1 1791
e 152 238 1 1792
e 152 264 3 1793
e 152 273 2 1794
e 153 176 1 1795
e 153 266 1 1797
e 153 240 1 1799
e 153 191 13 1800
e 153 297 4 1803
e 154 170 1 1807
e 154 172 1 1809
e 154 286 1 1810
e 155 172 1 1812
e 155 167 2 1814
e 155 170 1 1817
e 155 176 1 1818
e 155 231 25 1821
e 155 256 1 1822
e 155 274 1 1823
e 155 318 1 1825
e 156 249 4 1826
e 156 178 35 1828
e 156 225 1 1830
e 156 315 1 1833
e 157 302 22 1834
e 157 233 44 1836
e 157 264 1 1837
e 157 192 1 1838
e 157 199 1 1839
e 157 254 1 1840
e 157 309 1 1841
e 158 203 1 1844
e 158 240 1 1845
e 158 194 2 1847
e 158 204 9 1848
e 159 307 1 1853
e 159 266 2 1854
e 159 274 2 1855
e 160 186 30 1856
e 160 253 1 1857
e 160 221 1 1858
e 160 183 1 1859
e 160 162 1 1860
e 160 177 1 1861
e 160 181 1 1862
e 160 272 1 1863
e 161 290 47 1864
e 161 190 9 1865
e 161 219 28 1866
e 161 304 39 1867
e 161 189 29 1868
e 161 210 3 1869
e 161 259 32 1870
e 162 258 1 1872
e 162 297 6 1873
e 162 240 1 1874
e 162 189 1 1875
e 162 199 1 1876
e 162 223 1 1878
e 162 254 1 1879
e 162 303 1 1880
e 163 199 1 1881
e 163 238 1 1882
e 163 185 1 1884
e 163 191 35 1886
e 163 277 1 1888
e 164 297 38 1890
e 164 186 7 1891
e 164 197 1 1892
e 165 258 42 1894
e 165 237 7 1895
e 165 189 2 1896
e 165 217 35 1898
e 165 299 10 1899
e 165 314 15 1900
e 166 266 1 1901
e 166 299 6 1902
e 166 269 12 1906
e 166 280 11 1907
e 167 213 2 1908
e 167 224 1 1909
e 167 305 1 1910
e 167 171 2 1911
e 167 282 2 1913
e 168 254 1 1914
e 168 287 1 1915
e 168 300 1 1916
e 168 258 1 1917
e 168 264 2 1918
e 168 253 1 1919
e 168 229 1 1920
e 169 233 7 1921
e 169 178 21 1924
e 169 267 1 1925
e 169 194 28 1926
e 169 208 1 1927
e 169 277 1 1928
e 169 218 1 1929
e 170 232 1 1936
e 171 207 1 1937
e 171 180 1 1940
e 172 286 1 1942
e 172 192 1 1943
e 172 318 2 1944
e 172 174 1 1945
e 172 228 1 1946
e 172 277 2 1947
e 173 297 17 1948
e 173 205 1 1949
e 173 304 1 1950
e 173 282 1 1951
e 173 201 1 1952
e 173 239 1 1953
e 173 249 29 1954
e 173 250 1 1955
e 174 225 1 1956
e 174 204 1 1957
e 174 246 1 1958
e 174 230 1 1959
e 174 290 1 1961
e 174 314 1 1962
e 175 190 1 1963
e 175 252 1 1964
e 175 307 1 1965
e 175 313 1 1966
e 176 309 1 1968
e 176 289 1 1969
e 176 184 37 1970
e 176 257 1 1971
e 176 285 3 1972
e 177 198 1 1973
e 177 265 1 1974
e 177 181 1 1975
e 177 225 1 1976
e 177 256 1 1977
e 177 262 4 1979
e 178 179 41 1980
e 179 259 1 1981
e 179 180 1 1982
e 179 299 25 1983
e 179 185 1 1984
e 179 203 1 1986
e 180 183 1 1987
e 180 299 37 1988
e 180 220 1 1989
e 181 185 1 1991
e 181 194 35 1993
e 181 234 29 1994
e 182 197 2 1996
e 182 200 8 1998
e 182 211 2 1999
e 182 300 1 2000
e 182 223 1 2002
e 183 318 1 2004
e 183 198 1 2005
e 183 317 1 2008
e 184 193 1 2009
e 184 189 10 2010
e 184 303 26 2011
e 184 297 13 2012
e 184 296 5 2013
e 184 246 5 2014
e 184 291 1 2015
e 184 313 3 2017
e 185 283 2 2018
e 185 289 1 2019
e 185 234 37 2020
e 185 305 1 2021
e 185 244 2 2022
e 185 268 1 2024
e 186 204 45 2025
e 186 198 9 2026
e 186 216 13 2027
e 186 297 32 2028
e 186 199 48 2029
e 186 212 14 2030
e 187 254 1 2032
e 188 209 1 2035
e 188 214 1 2037
e 188 230 1 2038
e 188 298 2 2039
e 189 271 1 2040
e 189 307 1 2042
e 189 225 1 2043
e 189 245 9 2044
e 189 273 1 2045
e 189 285 2 2046
e 189 311 1 2047
e 189 319 1 2048
e 190 286 1 2050
e 190 201 1 2052
e 190 242 1 2054
e 190 277 1 2055
e 190 294 1 2056
e 190 299 5 2058
e 191 192 49 2060
e 191 245 17 2061
e 191 311 28 2062
e 192 197 1 2064
e 192 278 2 2065
e 192 196 1 2066
e 192 296 1 2067
e 193 270 1 2069
e 193 203 1 2073
e 193 277 1 2075
e 193 317 1 2076
e 194 317 5 2077
e 194 224 26 2078
e 194 215 1 2079
e 194 219 33 2080
e 194 197 17 2081
e 194 258 38 2082
e 194 265 15 2083
e 194 280 39 2085
e 194 316 37 2086
e 195 249 23 2087
e 195 277 13 2088
e 195 201 45 2089
e 195 224 49 2090
e 195 282 23 2092
e 195 290 19 2093
e 195 313 12 2094
e 196 284 25 2095
e 196 223 1 2096
e 196 242 1 2097
e 196 304 1 2099
e 196 310 2 2100
e 197 218 1 2102
e 197 209 1 2103
e 197 279 1 2104
e 198 200 15 2105
e 198 246 1 2106
e 198 303 1 2107
e 198 208 1 2108
e 198 283 1 2109
e 198 236 1 2110
e 199 241 6 2112
e 199 226 2 2114
e 199 286 1 2115
e 199 291 1 2116
e 200 262 7 2117
e 200 221 49 2120
e 200 232 1 2121
e 200 244 10 2122
e 201 297 6 2125
e 201 235 1 2126
e 201 253 1 2127
e 201 304 1 2128
e 202 241 9 2131
e 202 314 1 2132
e 203 214 1 2134
e 203 217 2 2135
e 203 222 1 2136
e 203 265 1 2137
e 204 272 2 2138
e 204 247 43 2139
e 204 234 20 2140
e 204 210 4 2141
e 204 215 49 2142
e 205 291 1 2145
e 205 233 11 2147
e 205 208 1 2148
e 205 224 2 2149
e 205 242 1 2150
e 206 291 1 2152
e 206 230 3 2155
e 206 238 1 2156
e 206 249 44 2157
e 207 214 1 2160
e 207 215 1 2161
e 208 296 1 2162
e 208 277 1 2163
e 208 303 1 2164
e 208 311 1 2165
e 208 316 1 2166
e 208 217 1 2167
e 208 224 1 2168
e 208 227 1 2169
e 208 263 1 2170
e 209 211 1 2172
e 209 244 1 2173
e 209 272 1 2174
e 209 217 1 2175
e 209 226 2 2176
e 209 245 47 2177
e 209 259 1 2178
e 209 312 1 2179
e 210 269 14 2180
e 210 240 1 2181
e 210 277 1 2182
e 210 294 1 2184
e 211 266 1 2186
e 211 215 1 2187
e 211 312 1 2188
e 211 221 1 2189
e 211 271 1 2190
e 211 300 1 2192
e 211 318 1 2193
e 212 214 1 2194
e 212 306 5 2195
e 212 223 1 2197
e 212 252 1 2198
e 212 273 1 2200
e 213 263 1 2202
e 213 277 1 2203
e 213 231 12 2204
e 213 256 1 2205
e 213 298 1 2206
e 214 293 2 2207
e 214 229 1 2208
e 214 235 2 2209
e 214 241 11 2210
e 215 274 1 2211
e 215 309 1 2214
e 216 223 1 2218
e 216 300 1 2223
e 217 284 29 2224
e 217 241 49 2225
e 217 280 37 2228
e 218 223 1 2229
e 218 220 1 2230
e 218 273 1 2231
e 218 284 28 2232
e 218 288 1 2233
e 219 317 1 2234
e 219 241 10 2235
e 219 298 2 2236
e 219 292 3 2237
e 219 314 1 2238
e 220 245 1 2239
e 220 268 1 2240
e 220 239 2 2241
e 220 251 1 2243
e 220 299 40 2244
e 221 223 1 2246
e 222 225 1 2249
e 223 292 1 2251
e 223 256 1 2252
e 223 260 1 2253
e 223 304 1 2254
e 224 288 1 2255
e 224 291 1 2256
e 224 287 1 2257
e 224 315 1 2258
e 224 309 1 2259
e 224 284 31 2260
e 224 285 2 2261
e 224 297 48 2262
e 224 300 1 2263
e 225 280 25 2264
e 225 246 2 2265
e 225 276 1 2266
e 225 243 1 2268
e 225 247 1 2269
e 225 255 1 2270
e 225 282 1 2271
e 225 310 2 2272
e 226 272 2 2273
e 226 230 1 2274
e 226 255 2 2275
e 226 270 2 2276
e 226 319 2 2277
e 227 304 1 2279
e 227 228 1 2280
e 227 238 1 2281
e 227 258 1 2282
e 228 306 24 2284
e 228 279 1 2285
e 228 261 2 2286
e 228 289 1 2287
e 229 309 1 2289
e 229 314 1 2290
e 230 243 1 2291
e 230 291 1 2292
e 230 289 1 2293
e 230 236 1 2294
e 230 263 1 2295
e 231 274 28 2296
e 231 270 2 2297
e 231 314 32 2298
e 231 278 2 2299
e 231 257 2 2300
e 232 242 2 2303
e 232 266 2 2306
e 233 307 47 2307
e 233 289 4 2308
e 233 245 6 2309
e 233 241 9 2310
e 233 273 41 2311
e 234 272 48 2312
e 234 269 30 2313
e 234 276 16 2314
e 235 242 3 2316
e 235 245 41 2317
e 236 263 1 2319
e 237 307 1 2320
e 237 300 1 2321
e 237 315 1 2324
e 238 263 1 2325
e 238 313 1 2326
e 238 312 1 2327
e 238 241 13 2328
e 238 270 1 2329
e 239 309 1 2330
e 239 298 2 2332
e 240 257 1 2335
e 240 271 1 2336
e 240 260 2 2337
e 241 261 41 2338
e 241 248 20 2339
e 241 270 19 2341
e 241 289 18 2342
e 241 302 39 2343
e 241 319 5 2344
e 242 244 1 2345
e 242 292 3 2346
e 244 294 2 2350
e 244 264 1 2351
e 245 291 49 2352
e 245 295 16 2353
e 246 274 2 2356
e 246 267 1 2357
e 246 317 2 2359
e 247 282 1 2360
e 247 284 3 2363
e 248 304 1 2365
e 249 268 3 2368
e 249 283 33 2369
e 250 262 5 2370
e 250 275 1 2371
e 251 256 1 2373
e 252 314 1 2375
e 252 278 1 2376
e 252 283 1 2377
e 252 294 1 2378
e 252 301 2 2379
e 252 304 1 2380
e 253 266 1 2381
e 253 267 1 2383
e 253 254 1 2384
e 254 262 33 2385
e 254 259 2 2386
e 254 265 1 2387
e 254 280 41 2388
e 254 290 1 2389
e 255 266 1 2390
e 255 319 1 2393
e 256 287 1 2394
e 256 282 1 2395
e 257 258 1 2397
e 257 306 34 2401
e 258 282 1 2402
e 258 310 2 2403
e 260 292 1 2410
e 260 273 1 2411
e 260 302 6 2412
e 261 270 2 2413
e 262 274 36 2415
e 262 302 28 2417
e 263 270 1 2418
e 263 265 1 2419
e 263 283 2 2420
e 263 307 1 2421
e 264 266 1 2422
e 265 298 1 2423
e 265 267 1 2424
e 266 297 10 2426
e 266 308 1 2427
e 266 290 1 2428
e 266 318 1 2429
e 267 270 1 2430
e 267 290 1 2431
e 267 313 1 2432
e 268 284 33 2434
e 268 309 1 2436
e 268 277 1 2437
e 268 292 1 2438
e 268 306 22 2440
e 269 288 39 2442
e 270 286 1 2443
e 270 271 1 2444
e 270 317 1 2445
e 273 305 1 2449
e 274 315 1 2450
e 277 289 1 2452
e 281 300 1 2457
e 282 306 36 2458
e 282 295 1 2459
e 282 302 3 2460
e 283 307 1 2461
e 283 318 1 2462
e 284 302 3 2463
e 287 294 2 2467
e 288 299 26 2469
e 289 300 1 2470
e 289 319 1 2471
e 290 315 1 2472
e 291 308 1 2473
e 292 301 2 2475
e 292 294 1 2476
e 294 296 1 2480
e 294 316 1 2481
e 294 319 1 2482
e 295 299 5 2483
e 297 311 30 2485
e 297 304 41 2487
e 297 308 15 2488
e 298 301 1 2490
e 299 315 32 2491
e 300 309 1 2492
e 302 308 39 2493
e 305 307 1 2494
e 307 309 1 2495
e 307 313 1 2496
e 307 317 1 2497
e 309 312 1 2498
e 316 317 1 2499
